
Gurobi 9.5.1 (mac64[x86]) logging started Wed Jun  8 15:26:40 2022

Set parameter LogFile to value "/Users/keyvanmajd/Documents/GitHub/NNRepLayer_v2/demos/examples/tc7_walking_example/repair_phase_constraint/repair_net/logs/opt_log_6_8_2022_15_26_21.log"
Gurobi Optimizer version 9.5.1 build v9.5.1rc2 (mac64[x86])
Thread count: 4 physical cores, 8 logical processors, using up to 8 threads
Optimize a model with 366 rows, 134 columns and 1242 nonzeros
Model fingerprint: 0x3e90ce94
Model has 101 quadratic objective terms
Coefficient statistics:
  Matrix range     [9e-03, 1e+01]
  Objective range  [5e-02, 5e+00]
  QObjective range [2e-01, 2e+00]
  Bounds range     [1e+01, 1e+02]
  RHS range        [5e-04, 2e+01]
Presolve removed 224 rows and 13 columns
Presolve time: 0.00s
Presolved: 142 rows, 121 columns, 1005 nonzeros
Presolved model has 101 quadratic objective terms
Ordering time: 0.00s

Barrier statistics:
 Dense cols : 15
 AA' NZ     : 1.194e+03
 Factor NZ  : 1.722e+03
 Factor Ops : 2.696e+04 (less than 1 second per iteration)
 Threads    : 1

                  Objective                Residual
Iter       Primal          Dual         Primal    Dual     Compl     Time
   0   4.02228230e+07 -4.10658308e+07  5.83e+03 7.36e+02  8.92e+05     0s
   1   1.39413844e+07 -1.47907146e+07  3.33e+03 4.20e+02  5.17e+05     0s
   2   1.40233527e+05 -1.55855604e+06  3.41e+02 4.30e+01  7.52e+04     0s
   3   1.44412446e+03 -1.15056071e+06  2.87e+01 3.62e+00  9.28e+03     0s
   4   1.02631326e+03 -7.06661926e+05  1.76e+01 2.23e+00  6.05e+03     0s
   5   1.19836976e+03  2.24465263e+05  1.55e+01 1.96e+00  6.01e+03     0s
   6   1.21041652e+03  7.69469381e+05  1.49e+01 1.88e+00  5.75e+03     0s
   7   1.28531345e+03  3.64402452e+06  1.40e+01 1.77e+00  6.31e+03     0s
   8   1.29698431e+03  6.83939288e+06  1.31e+01 1.65e+00  5.17e+03     0s
   9   1.29067117e+03  1.31862252e+07  1.29e+01 1.63e+00  4.94e+03     0s
  10   1.28411615e+03  3.76535149e+07  1.28e+01 1.62e+00  4.71e+03     0s
  11   1.27529067e+03  1.30391229e+08  1.28e+01 1.61e+00  4.99e+03     0s
  12   1.27490482e+03  8.47605559e+08  1.28e+01 1.61e+00  5.70e+03     0s
  13   1.00611234e+09 -1.01033306e+09  2.92e+04 3.66e+03  2.23e+07     0s
  14   1.65757708e+04 -2.69123047e+04  1.19e+02 1.73e+01  3.39e+02     0s
  15   8.87563914e+02 -1.34830686e+03  2.34e+01 3.40e+00  1.66e+01     0s
  16   8.23860177e+02 -1.99298648e+02  1.78e+01 2.57e+00  1.32e+01     0s
  17   9.97447331e+02  1.62805508e+03  1.50e+01 2.13e+00  1.83e+01     0s
  18   1.35228211e+03  2.91894114e+04  1.71e+01 1.94e+00  2.62e+02     0s
  19   1.44196100e+03  1.40580105e+05  1.78e+01 2.02e+00  7.87e+03     0s
  20   1.34188074e+03  2.05157239e+06  2.06e+01 2.34e+00  1.63e+06     0s
  21*  1.34189366e+03  1.03952830e+09  2.43e-03 3.44e-04  6.67e-01     0s
  22*  1.30012361e+03  9.19053091e+11  2.64e-06 6.60e-07  7.38e-04     0s
  23*  7.44215253e+02  3.30830751e+14  2.72e-09 1.33e-08  1.42e-06     0s
  24*  7.44215254e+02  3.30830739e+17  2.72e-12 5.00e-09  1.42e-09     0s

Barrier performed 24 iterations in 0.01 seconds (0.00 work units)
Infeasible model

